c   #vars: 114   #clauses: 529   #literals: 1456
c 
p cnf 114 529
-1 -2 0
52 53 71 -109 0
-3 -4 0
-5 -6 0
-7 -8 0
-1 50 51 71 0
-9 -10 0
-11 -12 0
-13 -14 0
-15 -16 0
-17 -18 0
-19 -20 0
-21 -22 0
23 -101 107 108 0
52 53 71 -95 0
27 62 63 -97 0
-25 -26 0
34 35 -36 59 0
-28 -29 0
-30 -31 0
-32 -33 0
-34 -35 0
-50 52 53 71 0
15 16 105 106 0
21 22 111 112 0
-37 -38 0
-39 -40 0
-41 -42 0
-43 -44 0
37 38 76 77 0
54 55 76 77 0
-45 -46 0
-48 -49 0
-50 -51 0
-52 -53 0
-54 -55 0
48 49 74 75 0
52 53 74 75 0
-57 -58 0
71 -95 109 110 0
-39 64 99 100 0
-60 -61 0
-62 -63 0
-57 90 101 102 0
-65 -66 0
-67 -68 0
-69 -70 0
-72 -73 0
-74 -75 0
-76 -77 0
-78 -79 0
-80 -81 0
-82 -83 0
-84 -85 0
-86 -87 0
67 68 109 110 0
-88 -89 0
5 6 82 83 0
-91 -92 0
-93 -94 0
-95 -96 0
-97 -98 0
50 51 72 73 0
41 42 72 73 0
-99 -100 0
1 2 56 -105 0
-101 -102 0
21 22 103 104 0
1 2 71 -109 0
-103 -104 0
-105 -106 0
-107 -108 0
1 2 32 33 0
-109 -110 0
25 26 95 96 0
-111 -112 0
9 10 113 114 0
-113 -114 0
43 44 101 102 0
23 25 26 -101 0
43 44 103 104 0
23 -25 101 102 0
1 2 11 12 0
-1 -11 0
-2 -12 0
11 12 50 51 0
-1 -15 0
-2 -16 0
39 40 65 66 0
-1 -25 0
-2 -26 0
7 8 34 35 0
-1 -32 0
-2 -33 0
36 41 42 -59 0
-2 -47 0
24 36 -41 -108 0
-2 -56 0
62 63 84 85 0
-1 -65 0
-2 -66 0
-2 -71 0
-52 71 95 96 0
24 -31 107 108 0
-50 71 95 96 0
74 75 97 98 0
-3 -50 0
-4 -51 0
-3 -54 0
-4 -55 0
15 16 21 22 0
-3 -57 0
-4 -58 0
1 2 -41 56 0
-3 -72 0
-4 -73 0
5 6 17 18 0
-5 -17 0
-6 -18 0
15 16 90 -101 0
-5 -19 0
-6 -20 0
15 16 88 89 0
-5 -45 0
-6 -46 0
-5 -82 0
-6 -83 0
32 33 76 77 0
-7 -34 0
-8 -35 0
30 31 32 33 0
-7 -43 0
-8 -44 0
28 29 62 63 0
-7 -60 0
-8 -61 0
88 89 91 92 0
-7 -74 0
-8 -75 0
32 33 107 108 0
-7 -84 0
-8 -85 0
50 51 103 104 0
-7 -101 0
-8 -102 0
-35 36 -41 59 0
23 101 102 -107 0
24 -36 107 108 0
13 14 32 33 0
30 31 74 75 0
-9 -11 0
-10 -12 0
30 31 95 96 0
-9 -21 0
-10 -22 0
39 40 52 53 0
-9 -45 0
-10 -46 0
60 61 109 110 0
-9 -59 0
-13 64 99 100 0
105 106 107 108 0
-9 -105 0
-10 -106 0
9 10 105 106 0
-9 -113 0
-10 -114 0
13 14 109 110 0
-11 -19 0
-12 -20 0
23 -25 107 108 0
24 30 31 -36 0
69 70 113 114 0
-11 -50 0
-12 -51 0
25 26 57 58 0
-11 -52 0
-12 -53 0
13 14 97 98 0
-11 -84 0
-12 -85 0
-13 -21 0
-14 -22 0
-13 -28 0
-14 -29 0
34 35 113 114 0
-13 -32 0
-14 -33 0
91 92 109 110 0
-15 90 101 102 0
-14 -64 0
82 83 97 98 0
-13 -82 0
-14 -83 0
32 33 99 100 0
-13 -97 0
-14 -98 0
15 16 41 42 0
-13 -109 0
-14 -110 0
11 12 19 20 0
-15 -21 0
-16 -22 0
-15 -41 0
-16 -42 0
65 66 86 87 0
-15 -80 0
-16 -81 0
-15 -88 0
-16 -89 0
-16 -90 0
54 55 103 104 0
-15 -101 0
-16 -102 0
-15 -105 0
-16 -106 0
-17 -34 0
-18 -35 0
15 16 80 81 0
-17 -57 0
-18 -58 0
84 85 91 92 0
-17 -80 0
-18 -81 0
34 35 62 63 0
-19 -32 0
-20 -33 0
-24 -35 36 59 0
-19 -60 0
-20 -61 0
-19 -69 0
-20 -70 0
76 77 82 83 0
-19 -72 0
-20 -73 0
72 73 97 98 0
-19 -82 0
-20 -83 0
37 38 105 106 0
-19 -88 0
-20 -89 0
60 61 67 68 0
-21 -62 0
-22 -63 0
19 20 69 70 0
-21 -65 0
-22 -66 0
39 40 82 83 0
-21 -72 0
-22 -73 0
7 8 101 102 0
-21 -103 0
-22 -104 0
-21 -111 0
-22 -112 0
19 20 60 61 0
24 -31 36 -59 0
23 25 26 -107 0
-52 71 109 110 0
24 36 -59 -108 0
-23 -26 0
48 49 84 85 0
1 2 -50 71 0
-23 -102 0
-23 -108 0
99 100 103 104 0
-24 -30 0
27 62 63 -86 0
-1 52 53 71 0
27 86 87 -97 0
-24 -107 0
27 -62 86 87 0
41 42 56 -105 0
-25 -45 0
-26 -46 0
-10 -24 36 59 0
-25 -57 0
-26 -58 0
86 87 111 112 0
-25 -95 0
-26 -96 0
3 4 57 58 0
-10 34 35 59 0
-27 -63 0
41 42 93 94 0
9 10 -36 59 0
-27 -87 0
28 29 30 31 0
9 10 -35 59 0
-27 -98 0
-28 -30 0
-29 -31 0
13 14 -39 64 0
-28 -62 0
-29 -63 0
43 44 69 70 0
-28 -103 0
-29 -104 0
-30 -32 0
-31 -33 0
78 79 88 89 0
-30 -74 0
-31 -75 0
48 49 99 100 0
-30 -95 0
-31 -96 0
3 4 50 51 0
13 14 82 83 0
27 -62 97 98 0
-32 -76 0
-33 -77 0
1 2 -52 71 0
-32 -99 0
-33 -100 0
93 94 113 114 0
-32 -107 0
-33 -108 0
41 42 107 108 0
-50 71 109 110 0
5 6 19 20 0
-34 -59 0
39 40 64 -99 0
67 68 111 112 0
-34 -62 0
-35 -63 0
9 10 45 46 0
-34 -113 0
-35 -114 0
50 51 71 -95 0
-36 -42 0
15 16 101 102 0
71 95 96 -109 0
-13 39 40 64 0
39 40 50 51 0
7 8 84 85 0
27 -86 97 98 0
47 -57 72 73 0
-37 -48 0
-38 -49 0
-37 -76 0
-38 -77 0
13 14 21 22 0
-37 -93 0
-38 -94 0
9 10 11 12 0
-37 -105 0
-38 -106 0
25 26 45 46 0
-39 -50 0
-40 -51 0
5 6 45 46 0
-39 -52 0
-40 -53 0
60 61 91 92 0
57 58 90 -101 0
-40 -64 0
97 98 111 112 0
-39 -65 0
-40 -66 0
1 2 65 66 0
-39 -82 0
-40 -83 0
-42 -56 0
7 8 43 44 0
-41 -72 0
-42 -73 0
80 81 95 96 0
-41 -93 0
-42 -94 0
-41 -107 0
-42 -108 0
-43 -69 0
-44 -70 0
-1 47 72 73 0
-43 -93 0
-44 -94 0
-43 -97 0
-44 -98 0
1 2 15 16 0
28 29 103 104 0
-43 -101 0
-44 -102 0
7 8 74 75 0
-43 -103 0
-44 -104 0
11 12 84 85 0
50 51 -52 71 0
52 53 54 55 0
-45 -69 0
-46 -70 0
19 20 32 33 0
-45 -109 0
-46 -110 0
37 38 48 49 0
-24 36 41 42 0
-47 -58 0
45 46 109 110 0
50 51 71 -109 0
-47 -73 0
21 22 72 73 0
47 57 58 -72 0
3 4 54 55 0
-48 -74 0
-49 -75 0
21 22 62 63 0
-48 -84 0
-49 -85 0
19 20 88 89 0
-48 -99 0
-49 -100 0
45 46 69 70 0
-51 -71 0
69 70 78 79 0
-50 -72 0
-51 -73 0
-50 -103 0
-51 -104 0
24 30 31 -108 0
-52 -54 0
-53 -55 0
-53 -71 0
17 18 57 58 0
-52 -74 0
-53 -75 0
17 18 34 35 0
-54 -76 0
-55 -77 0
43 44 93 94 0
-54 -103 0
-55 -104 0
-1 41 42 56 0
-56 -106 0
11 12 52 53 0
-58 -90 0
-1 71 109 110 0
-60 -67 0
-61 -68 0
37 38 93 94 0
-60 -91 0
-61 -92 0
-60 -109 0
-61 -110 0
67 68 86 87 0
-62 -84 0
-63 -85 0
19 20 82 83 0
-15 57 58 90 0
-64 -100 0
-1 71 95 96 0
-65 -86 0
-66 -87 0
1 2 25 26 0
-67 -86 0
-68 -87 0
-67 -109 0
-68 -110 0
9 10 21 22 0
-67 -111 0
-68 -112 0
17 18 80 81 0
-69 -78 0
-70 -79 0
-41 56 105 106 0
-69 -113 0
-70 -114 0
1 2 47 -57 0
-71 -96 0
76 77 80 81 0
-71 -110 0
78 79 82 83 0
-72 -97 0
-73 -98 0
1 2 71 -95 0
-74 -97 0
-75 -98 0
-10 36 -41 59 0
-76 -80 0
-77 -81 0
78 79 101 102 0
-76 -82 0
-77 -83 0
-1 47 57 58 0
84 85 99 100 0
-78 -82 0
-79 -83 0
21 22 65 66 0
-78 -88 0
-79 -89 0
19 20 72 73 0
-78 -101 0
-79 -102 0
24 -31 36 -41 0
-80 -95 0
-81 -96 0
43 44 97 98 0
-82 -97 0
-83 -98 0
15 16 -57 90 0
-84 -91 0
-85 -92 0
-84 -99 0
-85 -100 0
84 85 113 114 0
-84 -113 0
-85 -114 0
13 14 64 -99 0
-86 -111 0
-87 -112 0
-88 -91 0
-89 -92 0
3 4 72 73 0
-90 -102 0
1 2 47 -72 0
-91 -109 0
-92 -110 0
-93 -113 0
-94 -114 0
13 14 28 29 0
-97 -111 0
-98 -112 0
7 8 60 61 0
-99 -103 0
-100 -104 0
99 100 109 110 0
-99 -109 0
-100 -110 0
-1 56 105 106 0
-105 -107 0
-106 -108 0
